p cnf 20 11
e 1 2 0
a 3 0
e 4 5 0
a 6 0
e 7 0
a 8 0
e 9 0
a 10 11 0
e 12 13 0
a 14 0
e 15 0
a 16 17 0
e 18 0
a 19 20 0
1 -19 -16 0
5 8 -19 15 -10 0
4 20 5 -13 1 0
-20 -3 -5 -18 -6 0
-4 16 9 0
-7 -11 0
-20 16 13 -15 9 0
-10 -3 -6 0
-7 -9 5 -8 6 0
-13 2 -7 0
18 -7 -8 -9 -20 0
